p cnf 14 20
-8 -9 0
-8 -10 0
-9 -10 0
8 9 10 0
-11 -12 0
-11 -13 0
-11 -14 0
-12 -13 0
-12 -14 0
-13 -14 0
11 12 13 14 0
-1 -8 0
-2 -10 0
-3 -13 0
-4 -8 -11 0
-4 -9 -12 0
-4 -10 -13 0
-5 -14 0
-6 -12 0
-7 -13 0
